100 500 200 500 10 100
30 264
72 230
84 460
47 239
20 343
45 379
95 348
93 472
90 206
70 348
97 304
51 422
94 239
54 451
56 244
83 439
26 330
69 326
47 323
17 464
82 247
64 270
50 378
95 456
91 411
58 429
60 277
98 217
54 243
53 365
44 303
94 345
97 472
76 420
30 234
54 260
89 423
95 375
27 270
31 384
52 333
57 344
94 360
17 425
22 278
65 440
50 342
32 262
73 402
43 408
45 262
57 416
21 445
79 234
39 319
99 344
95 479
99 209
27 348
52 491
30 472
12 255
27 412
32 376
86 497
45 249
70 449
34 493
97 453
19 307
65 343
87 422
80 387
63 409
55 364
90 359
75 277
61 399
42 430
45 250
65 307
28 383
73 462
15 347
54 299
21 436
48 353
47 212
47 288
78 473
15 217
46 486
75 443
35 481
96 408
15 247
51 279
85 468
76 253
99 404
